
Gurobi 9.1.2 (linux64) logging started Tue Mar 29 22:16:16 2022

Changed value of parameter LogFile to abilene_v-KSCYng.log
   Prev:   Default: 
Changed value of parameter MIPFocus to 1
   Prev: 0  Min: 0  Max: 3  Default: 0
Changed value of parameter TimeLimit to 600.0
   Prev: inf  Min: 0.0  Max: inf  Default: inf
Warning: variables 0 and 54 have the same name "X[ATLAM5,ATLAng]"
Warning: linear constraint 78 and linear constraint 79 have the same name "weight-constr-t5"
Warning: to let Gurobi read it back, use rlp format
Gurobi Optimizer version 9.1.2 build v9.1.2rc0 (linux64)
Thread count: 32 physical cores, 64 logical processors, using up to 32 threads
Optimize a model with 377 rows, 324 columns and 1056 nonzeros
Model fingerprint: 0x287dc987
Variable types: 72 continuous, 252 integer (252 binary)
Coefficient statistics:
  Matrix range     [1e+00, 1e+06]
  Objective range  [2e-01, 2e-01]
  Bounds range     [1e+00, 5e+05]
  RHS range        [1e+00, 1e+06]
Found heuristic solution: objective 25.6666667
Presolve removed 84 rows and 96 columns
Presolve time: 0.00s
Presolved: 293 rows, 228 columns, 1170 nonzeros
Variable types: 66 continuous, 162 integer (162 binary)

Root relaxation: objective 1.200000e+01, 56 iterations, 0.00 seconds

    Nodes    |    Current Node    |     Objective Bounds      |     Work
 Expl Unexpl |  Obj  Depth IntInf | Incumbent    BestBd   Gap | It/Node Time

     0     0   12.00000    0    3   25.66667   12.00000  53.2%     -    0s
H    0     0                      25.3333333   12.00000  52.6%     -    0s
H    0     0                      19.8333333   12.00000  39.5%     -    0s
     0     0   12.00000    0   11   19.83333   12.00000  39.5%     -    0s
H    0     0                      18.6666667   12.00000  35.7%     -    0s
     0     0   12.00000    0   13   18.66667   12.00000  35.7%     -    0s
H    0     0                      18.1666667   12.00000  33.9%     -    0s
     0     0   12.00000    0    8   18.16667   12.00000  33.9%     -    0s
     0     0   12.00000    0    8   18.16667   12.00000  33.9%     -    0s
     0     0   12.00000    0   13   18.16667   12.00000  33.9%     -    0s
     0     0   12.00000    0    8   18.16667   12.00000  33.9%     -    0s
     0     0   12.00000    0    8   18.16667   12.00000  33.9%     -    0s
H    0     0                      18.1666667   12.00000  33.9%     -    0s
     0     2   12.00000    0    8   18.16667   12.00000  33.9%     -    0s
H   50    70                      18.0000000   12.00000  33.3%  11.1    0s
H   53    70                      17.6666667   12.00000  32.1%  11.1    0s
H  112   122                      17.3333333   12.00000  30.8%  10.2    0s
H  112   122                      16.8333333   12.00000  28.7%  10.2    0s
H  121   122                      16.6666667   12.00000  28.0%  10.5    0s
H  130   122                      16.3333333   12.00000  26.5%  10.0    0s
H  135   122                      16.1666667   12.00000  25.8%   9.9    0s
H  147   137                      16.0000000   12.00000  25.0%   9.5    0s
* 1170   793              33      15.5000000   12.00000  22.6%   7.8    1s
* 5749  2483              42      15.3333346   12.00000  21.7%   6.9    1s
* 6506  2811              39      14.8333400   12.00000  19.1%   6.9    1s

Cutting planes:
  Learned: 31
  Gomory: 1
  Cover: 53
  Implied bound: 32
  Clique: 27
  MIR: 54
  Flow cover: 156
  GUB cover: 4
  RLT: 75
  Relax-and-lift: 57

Explored 7624 nodes (72375 simplex iterations) in 2.13 seconds
Thread count was 32 (of 64 available processors)

Solution count 10: 14.8333 15.3333 15.5 ... 17.6667
No other solutions better than 14.8333

Optimal solution found (tolerance 1.00e-04)
Best objective 1.483333428618e+01, best bound 1.483333428618e+01, gap 0.0000%

Gurobi 9.1.2 (linux64) logging started Mon Apr  4 18:56:44 2022

Changed value of parameter LogFile to abilene_v-KSCYng.log
   Prev:   Default: 
Changed value of parameter MIPFocus to 1
   Prev: 0  Min: 0  Max: 3  Default: 0
Changed value of parameter TimeLimit to 1200.0
   Prev: inf  Min: 0.0  Max: inf  Default: inf
Warning: variables 0 and 54 have the same name "X[SNVAng,STTLng]"
Warning: linear constraint 78 and linear constraint 79 have the same name "weight-constr-t5"
Warning: to let Gurobi read it back, use rlp format
Gurobi Optimizer version 9.1.2 build v9.1.2rc0 (linux64)
Thread count: 32 physical cores, 64 logical processors, using up to 32 threads
Optimize a model with 377 rows, 324 columns and 1056 nonzeros
Model fingerprint: 0x2ac8ae84
Variable types: 72 continuous, 252 integer (252 binary)
Coefficient statistics:
  Matrix range     [1e+00, 1e+06]
  Objective range  [2e-01, 2e-01]
  Bounds range     [1e+00, 5e+05]
  RHS range        [1e+00, 1e+06]
Presolve removed 84 rows and 96 columns
Presolve time: 0.00s
Presolved: 293 rows, 228 columns, 1170 nonzeros
Variable types: 66 continuous, 162 integer (162 binary)
Found heuristic solution: objective 39.0000000

Root relaxation: objective 1.200000e+01, 55 iterations, 0.00 seconds

    Nodes    |    Current Node    |     Objective Bounds      |     Work
 Expl Unexpl |  Obj  Depth IntInf | Incumbent    BestBd   Gap | It/Node Time

     0     0   12.00000    0   12   39.00000   12.00000  69.2%     -    0s
H    0     0                      18.8333333   12.00000  36.3%     -    0s
     0     0   12.00000    0   13   18.83333   12.00000  36.3%     -    0s
     0     0   12.00000    0   13   18.83333   12.00000  36.3%     -    0s
     0     0   12.00000    0    8   18.83333   12.00000  36.3%     -    0s
     0     0   12.00000    0    8   18.83333   12.00000  36.3%     -    0s
     0     0   12.00000    0    9   18.83333   12.00000  36.3%     -    0s
     0     0   12.00000    0   10   18.83333   12.00000  36.3%     -    0s
     0     0   12.00000    0   12   18.83333   12.00000  36.3%     -    0s
     0     2   12.00000    0    6   18.83333   12.00000  36.3%     -    0s
H    8    10                      18.6666667   12.00000  35.7%   7.4    0s
H   43    51                      18.5000000   12.00000  35.1%   8.0    0s
H   48    51                      18.1666667   12.00000  33.9%   8.7    0s
H   59    51                      17.6666667   12.00000  32.1%   8.6    0s
*   76    72               7      16.0000000   12.00000  25.0%  10.0    0s
*  474   296              18      15.3333352   12.00000  21.7%   9.0    1s
*  507   296              18      14.6666667   12.00000  18.2%   9.0    1s

Cutting planes:
  Learned: 6
  Cover: 2
  Implied bound: 12
  Flow cover: 4
  Relax-and-lift: 1

Explored 1176 nodes (10379 simplex iterations) in 2.17 seconds
Thread count was 32 (of 64 available processors)

Solution count 9: 14.6667 15.3333 16 ... 39

Solve interrupted
Best objective 1.466666666668e+01, best bound 1.200000000000e+01, gap 18.1818%
